====================================================================================================================
File name: 200_20_150_9_D5.def
Creation date: Tue Nov 25 16:29:04 CET 2014
Website: http://imopse.ii.pwr.edu.pl/
Reference:
Myszkowski P. B., Skowronski M. E., Olech L., Oslizlo K.,
Hybrid Ant Colony Optimization in solving Multi-Skill Resource-Constrained Project Scheduling Problem,
Soft Computing, DOI: DOI 10.1007/s00500-014-1455-x
====================================================================================================================
====================================================================================================================
=====================================================IMPORTANT======================================================
====================================================================================================================
Lacking task identifiers is a result of transforming definitions from MPP to DEF format.
Those lacking ids reflects to the summary tasks, available in MS Project definition that have been removed here.
 Therefore number of precedence relations increased, as relations between summary task had to be multiplied
to all tasks that were included into summary ones. Both file definition formats are compatible with each other.
====================================================================================================================
The file is free from calendar restrictions, typical for .mpp format
====================================================================================================================
General characteristics:
Tasks: 165
Resources: 20
Precedence relations: 271
Number of skill types: 9
====================================================================================================================
ResourceID 	 Salary 	 Skills
1	 	 	29.8	 	 Q8: 1 	  Q3: 0 	  Q5: 0 	  Q6: 2 	  Q1: 0 	  Q7: 1
2	 	 	15.6	 	 Q2: 2 	  Q7: 1 	  Q0: 2 	  Q6: 0 	  Q5: 1 	  Q8: 2
3	 	 	31.8	 	 Q5: 1 	  Q1: 1 	  Q8: 2 	  Q3: 0 	  Q6: 2 	  Q2: 2
4	 	 	32.0	 	 Q2: 2 	  Q6: 1 	  Q4: 0 	  Q3: 1 	  Q1: 2 	  Q0: 1
5	 	 	13.8	 	 Q7: 1 	  Q6: 2 	  Q4: 1 	  Q5: 1 	  Q8: 0 	  Q3: 1
6	 	 	15.5	 	 Q3: 2 	  Q1: 1 	  Q5: 2 	  Q8: 0 	  Q7: 2 	  Q0: 1
7	 	 	18.4	 	 Q4: 2 	  Q3: 0 	  Q2: 2 	  Q7: 0 	  Q6: 2 	  Q8: 1
8	 	 	16.2	 	 Q2: 0 	  Q6: 2 	  Q3: 2 	  Q8: 2 	  Q0: 2 	  Q5: 2
9	 	 	12.6	 	 Q7: 0 	  Q0: 1 	  Q8: 2 	  Q1: 0 	  Q5: 0 	  Q6: 0
10	 	 	12.3	 	 Q0: 1 	  Q7: 0 	  Q4: 2 	  Q8: 2 	  Q5: 1 	  Q3: 1
11	 	 	14.1	 	 Q6: 0 	  Q8: 1 	  Q5: 0 	  Q0: 2 	  Q3: 0 	  Q1: 2
12	 	 	24.6	 	 Q8: 0 	  Q3: 2 	  Q5: 2 	  Q0: 1 	  Q1: 1 	  Q4: 1
13	 	 	36.1	 	 Q0: 0 	  Q6: 1 	  Q2: 0 	  Q4: 2 	  Q8: 1 	  Q5: 2
14	 	 	34.3	 	 Q0: 2 	  Q4: 1 	  Q6: 2 	  Q3: 0 	  Q5: 2 	  Q8: 2
15	 	 	37.5	 	 Q5: 0 	  Q7: 0 	  Q2: 0 	  Q1: 0 	  Q4: 2 	  Q8: 1
16	 	 	17.8	 	 Q3: 1 	  Q4: 2 	  Q1: 1 	  Q5: 0 	  Q6: 0 	  Q7: 1
17	 	 	25.3	 	 Q1: 2 	  Q8: 1 	  Q6: 2 	  Q5: 0 	  Q3: 2 	  Q0: 1
18	 	 	12.7	 	 Q1: 2 	  Q2: 2 	  Q0: 2 	  Q7: 2 	  Q8: 1 	  Q3: 1
19	 	 	26.6	 	 Q6: 1 	  Q7: 0 	  Q8: 0 	  Q0: 2 	  Q5: 1 	  Q4: 2
20	 	 	38.2	 	 Q5: 1 	  Q3: 1 	  Q0: 1 	  Q1: 1 	  Q4: 1 	  Q8: 1
====================================================================================================================
TaskID 	 Duration 	 Skill 	 Predecessor IDs
3	 	 	26	 Q0: 2
4	 	 	23	 Q7: 0
5	 	 	17	 Q7: 1
6	 	 	30	 Q3: 0	 	5
7	 	 	31	 Q1: 2	 	6	3
8	 	 	21	 Q4: 2	 	7
10	 	 	25	 Q5: 1	 	8
11	 	 	36	 Q7: 0	 	8
12	 	 	37	 Q6: 1	 	11	8
13	 	 	36	 Q3: 2	 	8
14	 	 	38	 Q8: 1	 	13	8
15	 	 	9	 Q3: 0	 	8
16	 	 	22	 Q1: 1	 	15	8
17	 	 	36	 Q5: 2	 	16	15
18	 	 	12	 Q0: 1	 	17
19	 	 	18	 Q6: 2	 	18
20	 	 	39	 Q8: 0	 	19
22	 	 	28	 Q6: 1	 	20
23	 	 	37	 Q0: 1	 	20
24	 	 	28	 Q3: 2	 	23	20
25	 	 	20	 Q3: 0
26	 	 	19	 Q4: 1	 	10	25
27	 	 	39	 Q3: 1	 	26
28	 	 	38	 Q5: 1	 	27	12
29	 	 	28	 Q7: 2	 	28
31	 	 	33	 Q4: 2	 	22
32	 	 	11	 Q1: 2	 	31	22
33	 	 	20	 Q1: 0	 	32
34	 	 	24	 Q8: 0
36	 	 	35	 Q3: 2	 	34
37	 	 	11	 Q8: 0	 	34
38	 	 	24	 Q3: 0	 	37	34
39	 	 	13	 Q7: 0	 	38	34
40	 	 	30	 Q8: 2
41	 	 	21	 Q1: 0	 	40
42	 	 	29	 Q0: 2	 	41	33
43	 	 	28	 Q3: 0	 	42
44	 	 	19	 Q3: 1
45	 	 	18	 Q7: 2	 	27
48	 	 	20	 Q7: 1	 	45
49	 	 	37	 Q6: 0	 	45
50	 	 	23	 Q1: 2	 	45
52	 	 	23	 Q3: 0
53	 	 	22	 Q6: 2	 	43	41
55	 	 	18	 Q5: 1	 	45	53
56	 	 	15	 Q5: 1	 	53
57	 	 	14	 Q8: 0	 	48
58	 	 	35	 Q8: 1	 	57
59	 	 	31	 Q5: 1	 	58
60	 	 	10	 Q1: 0
61	 	 	12	 Q5: 2	 	43	49	60
62	 	 	37	 Q4: 1	 	56
63	 	 	35	 Q7: 2	 	56	52	62
64	 	 	26	 Q1: 0	 	63
67	 	 	17	 Q4: 0	 	64	57
68	 	 	36	 Q4: 2	 	50	64	57
69	 	 	24	 Q4: 1	 	64	57
70	 	 	19	 Q0: 1	 	61
71	 	 	22	 Q1: 0
72	 	 	14	 Q8: 0
73	 	 	24	 Q0: 2	 	72
74	 	 	20	 Q1: 0	 	73
76	 	 	23	 Q2: 0	 	74
77	 	 	24	 Q7: 2	 	76	74
78	 	 	25	 Q5: 0	 	59
79	 	 	35	 Q6: 2	 	60	69	78
80	 	 	10	 Q3: 0	 	79
81	 	 	31	 Q1: 2	 	80
82	 	 	32	 Q3: 1	 	67
83	 	 	34	 Q4: 2
84	 	 	15	 Q3: 2	 	83
86	 	 	29	 Q7: 0	 	80	84
87	 	 	37	 Q6: 2	 	84
88	 	 	40	 Q7: 0	 	87	84
89	 	 	31	 Q5: 2	 	88	84
90	 	 	28	 Q8: 2	 	89	84
91	 	 	22	 Q7: 1	 	84
92	 	 	30	 Q4: 1	 	91	84
93	 	 	29	 Q5: 0	 	86
94	 	 	11	 Q4: 2	 	93
95	 	 	17	 Q8: 1
96	 	 	34	 Q5: 0
97	 	 	29	 Q0: 2	 	81
98	 	 	20	 Q5: 2	 	97
99	 	 	33	 Q4: 2	 	86
100	 	 	33	 Q1: 1	 	99
101	 	 	30	 Q6: 0	 	100	92
104	 	 	37	 Q4: 1	 	101
105	 	 	12	 Q0: 2	 	104	101
106	 	 	18	 Q7: 0	 	95	101
107	 	 	19	 Q6: 2	 	101
108	 	 	31	 Q6: 1	 	101
109	 	 	39	 Q3: 2	 	101
110	 	 	37	 Q6: 0	 	109	101
111	 	 	26	 Q7: 1	 	110
112	 	 	18	 Q3: 1	 	111
113	 	 	28	 Q1: 2	 	112
114	 	 	21	 Q7: 1
115	 	 	34	 Q4: 2
116	 	 	39	 Q7: 0	 	113
117	 	 	34	 Q5: 0
118	 	 	18	 Q0: 2
120	 	 	10	 Q4: 2	 	110
121	 	 	26	 Q7: 1	 	110
122	 	 	13	 Q2: 2	 	121	110
126	 	 	10	 Q3: 1	 	111	113
127	 	 	22	 Q6: 2	 	126
128	 	 	11	 Q5: 0
129	 	 	30	 Q7: 1
130	 	 	10	 Q7: 1
131	 	 	11	 Q3: 0
132	 	 	11	 Q5: 1	 	113	131
133	 	 	15	 Q5: 0	 	132
134	 	 	15	 Q8: 1
136	 	 	26	 Q2: 0	 	134
137	 	 	40	 Q3: 0	 	134
138	 	 	36	 Q0: 2	 	137	134
142	 	 	16	 Q8: 1
143	 	 	39	 Q8: 0	 	142
144	 	 	13	 Q7: 0
146	 	 	16	 Q8: 0	 	132	129
147	 	 	16	 Q4: 2	 	129
149	 	 	10	 Q6: 0	 	147	131	129
150	 	 	13	 Q0: 1	 	147	131	129
151	 	 	31	 Q8: 0	 	150	129	147	131
152	 	 	16	 Q3: 2	 	151	150	129	147	131
153	 	 	19	 Q3: 1	 	152	150	129	147	131
154	 	 	11	 Q6: 2	 	153	147	131	129
155	 	 	26	 Q6: 2	 	154	147	131	129
156	 	 	36	 Q8: 2	 	155	147	131	129
157	 	 	27	 Q6: 1	 	156	147	131
160	 	 	13	 Q8: 2	 	157	156	147	131
161	 	 	20	 Q4: 0	 	160	156	147	131
162	 	 	29	 Q6: 1	 	147	131	161	150
166	 	 	24	 Q5: 1	 	162	147	131	161	150
167	 	 	40	 Q6: 1	 	147	131	161	150
168	 	 	35	 Q0: 1	 	167	161	147	131	150
169	 	 	22	 Q4: 1	 	152	168	147	131	161	150
171	 	 	37	 Q6: 0	 	169	168	147	131	161	150
172	 	 	11	 Q6: 2	 	161	147	131
173	 	 	36	 Q2: 2	 	160	172	161	147	131
174	 	 	10	 Q2: 2	 	147	131
175	 	 	17	 Q6: 0	 	174	147	131
176	 	 	20	 Q5: 0	 	175	147	131
177	 	 	33	 Q4: 1	 	176	147	131
178	 	 	12	 Q1: 1	 	177	147	131
179	 	 	40	 Q0: 1	 	178	171	147	131
180	 	 	36	 Q2: 2	 	179	147	131
181	 	 	25	 Q8: 2	 	180	147	131
182	 	 	17	 Q6: 1	 	147	131
183	 	 	38	 Q8: 1	 	182	147	131
184	 	 	26	 Q6: 2	 	183	168	147	131
185	 	 	23	 Q5: 0	 	147	131
186	 	 	28	 Q8: 2	 	185	147	131
187	 	 	15	 Q4: 2	 	185	173	129
188	 	 	35	 Q0: 0	 	129
189	 	 	39	 Q5: 2	 	188
191	 	 	9	 Q2: 2	 	176	189	188
192	 	 	22	 Q8: 0	 	191
193	 	 	39	 Q2: 2	 	192
194	 	 	35	 Q6: 2	 	193
195	 	 	20	 Q2: 0	 	194
196	 	 	12	 Q7: 2	 	179	195
199	 	 	40	 Q2: 0	 	195
200	 	 	29	 Q0: 1	 	195
====================================================================================================================
